NAME          DCAP_3_4_2_300_SS272
ROWS
 N  OBJ
 L  CON1
 L  CON2
 L  CON3
 L  CON4
 L  CON5
 L  CON6
 L  CON7
 L  CON8
 L  CON9
 L  CON10
 L  CON11
 L  CON12
 E  CON13
 E  CON14
 E  CON15
 E  CON16
 E  CON17
 E  CON18
 E  CON19
 E  CON20
COLUMNS
    x[1,1]    OBJ       6.180167      CON1      1.000000    
    x[1,1]    CON7      -1.000000     CON8      -1.000000   
    x[1,2]    OBJ       5.039546      CON2      1.000000    
    x[1,2]    CON8      -1.000000   
    x[2,1]    OBJ       6.732585      CON3      1.000000    
    x[2,1]    CON9      -1.000000     CON10     -1.000000   
    x[2,2]    OBJ       7.443064      CON4      1.000000    
    x[2,2]    CON10     -1.000000   
    x[3,1]    OBJ       6.563535      CON5      1.000000    
    x[3,1]    CON11     -1.000000     CON12     -1.000000   
    x[3,2]    OBJ       6.054841      CON6      1.000000    
    x[3,2]    CON12     -1.000000   
    MARKER    'MARKER'                'INTORG'
    u[1,1]    OBJ       48.076654     CON1      -1.000000   
    u[1,2]    OBJ       49.466655     CON2      -1.000000   
    u[2,1]    OBJ       49.996186     CON3      -1.000000   
    u[2,2]    OBJ       32.230043     CON4      -1.000000   
    u[3,1]    OBJ       20.066487     CON5      -1.000000   
    u[3,2]    OBJ       27.484319     CON6      -1.000000   
    y[1,1,1]  OBJ       8.859013      CON7      1.031947    
    y[1,1,1]  CON13     1.000000    
    y[1,1,2]  OBJ       7.649025      CON8      0.992972    
    y[1,1,2]  CON14     1.000000    
    y[1,2,1]  OBJ       6.646870      CON7      0.874711    
    y[1,2,1]  CON15     1.000000    
    y[1,2,2]  OBJ       9.613925      CON8      1.019670    
    y[1,2,2]  CON16     1.000000    
    y[1,3,1]  OBJ       8.668525      CON7      0.518336    
    y[1,3,1]  CON17     1.000000    
    y[1,3,2]  OBJ       7.215977      CON8      0.696711    
    y[1,3,2]  CON18     1.000000    
    y[1,4,1]  OBJ       6.165867      CON7      0.664774    
    y[1,4,1]  CON19     1.000000    
    y[1,4,2]  OBJ       8.580186      CON8      0.805496    
    y[1,4,2]  CON20     1.000000    
    y[2,1,1]  OBJ       8.902776      CON9      1.031947    
    y[2,1,1]  CON13     1.000000    
    y[2,1,2]  OBJ       5.416226      CON10     0.992972    
    y[2,1,2]  CON14     1.000000    
    y[2,2,1]  OBJ       9.704339      CON9      0.874711    
    y[2,2,1]  CON15     1.000000    
    y[2,2,2]  OBJ       8.671893      CON10     1.019670    
    y[2,2,2]  CON16     1.000000    
    y[2,3,1]  OBJ       9.778110      CON9      0.518336    
    y[2,3,1]  CON17     1.000000    
    y[2,3,2]  OBJ       6.321258      CON10     0.696711    
    y[2,3,2]  CON18     1.000000    
    y[2,4,1]  OBJ       9.640141      CON9      0.664774    
    y[2,4,1]  CON19     1.000000    
    y[2,4,2]  OBJ       7.478578      CON10     0.805496    
    y[2,4,2]  CON20     1.000000    
    y[3,1,1]  OBJ       9.311494      CON11     1.031947    
    y[3,1,1]  CON13     1.000000    
    y[3,1,2]  OBJ       6.353843      CON12     0.992972    
    y[3,1,2]  CON14     1.000000    
    y[3,2,1]  OBJ       5.238552      CON11     0.874711    
    y[3,2,1]  CON15     1.000000    
    y[3,2,2]  OBJ       9.470707      CON12     1.019670    
    y[3,2,2]  CON16     1.000000    
    y[3,3,1]  OBJ       8.960209      CON11     0.518336    
    y[3,3,1]  CON17     1.000000    
    y[3,3,2]  OBJ       6.182935      CON12     0.696711    
    y[3,3,2]  CON18     1.000000    
    y[3,4,1]  OBJ       7.143435      CON11     0.664774    
    y[3,4,1]  CON19     1.000000    
    y[3,4,2]  OBJ       6.756384      CON12     0.805496    
    y[3,4,2]  CON20     1.000000    
    z[1,1]    OBJ       912.980006    CON13     1.000000    
    z[1,2]    OBJ       930.239636    CON14     1.000000    
    z[2,1]    OBJ       799.806873    CON15     1.000000    
    z[2,2]    OBJ       658.437396    CON16     1.000000    
    z[3,1]    OBJ       635.773484    CON17     1.000000    
    z[3,2]    OBJ       873.502002    CON18     1.000000    
    z[4,1]    OBJ       921.708342    CON19     1.000000    
    z[4,2]    OBJ       837.144865    CON20     1.000000    
    MARKER    'MARKER'                 'INTEND'
RHS
    RHS       CON1      -0.000000     CON2      -0.000000   
    RHS       CON3      -0.000000     CON4      -0.000000   
    RHS       CON5      -0.000000     CON6      -0.000000   
    RHS       CON7      -0.000000     CON8      -0.000000   
    RHS       CON9      -0.000000     CON10     -0.000000   
    RHS       CON11     -0.000000     CON12     -0.000000   
    RHS       CON13     1.000000      CON14     1.000000    
    RHS       CON15     1.000000      CON16     1.000000    
    RHS       CON17     1.000000      CON18     1.000000    
    RHS       CON19     1.000000      CON20     1.000000    
BOUNDS
 BV BOUND     u[1,1]  
 BV BOUND     u[1,2]  
 BV BOUND     u[2,1]  
 BV BOUND     u[2,2]  
 BV BOUND     u[3,1]  
 BV BOUND     u[3,2]  
 BV BOUND     y[1,1,1]
 BV BOUND     y[1,1,2]
 BV BOUND     y[1,2,1]
 BV BOUND     y[1,2,2]
 BV BOUND     y[1,3,1]
 BV BOUND     y[1,3,2]
 BV BOUND     y[1,4,1]
 BV BOUND     y[1,4,2]
 BV BOUND     y[2,1,1]
 BV BOUND     y[2,1,2]
 BV BOUND     y[2,2,1]
 BV BOUND     y[2,2,2]
 BV BOUND     y[2,3,1]
 BV BOUND     y[2,3,2]
 BV BOUND     y[2,4,1]
 BV BOUND     y[2,4,2]
 BV BOUND     y[3,1,1]
 BV BOUND     y[3,1,2]
 BV BOUND     y[3,2,1]
 BV BOUND     y[3,2,2]
 BV BOUND     y[3,3,1]
 BV BOUND     y[3,3,2]
 BV BOUND     y[3,4,1]
 BV BOUND     y[3,4,2]
 BV BOUND     z[1,1]  
 BV BOUND     z[1,2]  
 BV BOUND     z[2,1]  
 BV BOUND     z[2,2]  
 BV BOUND     z[3,1]  
 BV BOUND     z[3,2]  
 BV BOUND     z[4,1]  
 BV BOUND     z[4,2]  
ENDATA
